c turning on binary mode checking
c parsing input formula with 202048 variables and 780980 clauses
c finished parsing, read 2330445 bytes from proof file
c detected empty clause; start verification via backward checking
c 6778 of 780980 clauses in core                            
c 2145 of 94056 lemmas in core using 57487 resolution steps
c 0 RAT lemmas in core; 348 redundant literals in core lemmas
s VERIFIED
c verification time: 1.044 seconds
